p cnf 64 122
1 2 3 4 0
-1 -2 -3 -4 0
5 6 7 8 0
-5 -6 -7 -8 0
9 10 11 12 0
-9 -10 -11 -12 0
13 14 15 16 0
-13 -14 -15 -16 0
17 18 19 20 0
-17 -18 -19 -20 0
21 22 23 24 0
-21 -22 -23 -24 0
25 26 27 28 0
-25 -26 -27 -28 0
29 30 31 32 0
-29 -30 -31 -32 0
33 34 35 36 0
-33 -34 -35 -36 0
37 38 39 40 0
-37 -38 -39 -40 0
41 42 43 44 0
-41 -42 -43 -44 0
45 46 47 48 0
-45 -46 -47 -48 0
49 50 51 52 0
-49 -50 -51 -52 0
53 54 55 56 0
-53 -54 -55 -56 0
57 58 59 60 0
-57 -58 -59 -60 0
61 62 63 64 0
-61 -62 -63 -64 0
1 5 9 13 0
-1 -5 -9 -13 0
2 6 10 14 0
-2 -6 -10 -14 0
3 7 11 15 0
-3 -7 -11 -15 0
4 8 12 16 0
-4 -8 -12 -16 0
17 21 25 29 0
-17 -21 -25 -29 0
18 22 26 30 0
-18 -22 -26 -30 0
19 23 27 31 0
-19 -23 -27 -31 0
20 24 28 32 0
-20 -24 -28 -32 0
33 37 41 45 0
-33 -37 -41 -45 0
34 38 42 46 0
-34 -38 -42 -46 0
35 39 43 47 0
-35 -39 -43 -47 0
36 40 44 48 0
-36 -40 -44 -48 0
49 53 57 61 0
-49 -53 -57 -61 0
50 54 58 62 0
-50 -54 -58 -62 0
51 55 59 63 0
-51 -55 -59 -63 0
52 56 60 64 0
-52 -56 -60 -64 0
1 6 11 16 0
-1 -6 -11 -16 0
17 22 27 32 0
-17 -22 -27 -32 0
33 38 43 48 0
-33 -38 -43 -48 0
49 54 59 64 0
-49 -54 -59 -64 0
1 17 33 49 0
-1 -17 -33 -49 0
2 18 34 50 0
-2 -18 -34 -50 0
3 19 35 51 0
-3 -19 -35 -51 0
4 20 36 52 0
-4 -20 -36 -52 0
5 21 37 53 0
-5 -21 -37 -53 0
6 22 38 54 0
-6 -22 -38 -54 0
7 23 39 55 0
-7 -23 -39 -55 0
8 24 40 56 0
-8 -24 -40 -56 0
9 25 41 57 0
-9 -25 -41 -57 0
10 26 42 58 0
-10 -26 -42 -58 0
11 27 43 59 0
-11 -27 -43 -59 0
12 28 44 60 0
-12 -28 -44 -60 0
13 29 45 61 0
-13 -29 -45 -61 0
14 30 46 62 0
-14 -30 -46 -62 0
15 31 47 63 0
-15 -31 -47 -63 0
16 32 48 64 0
-16 -32 -48 -64 0
1 18 35 52 0
-1 -18 -35 -52 0
5 22 39 56 0
-5 -22 -39 -56 0
9 26 43 60 0
-9 -26 -43 -60 0
13 30 47 64 0
-13 -30 -47 -64 0
1 21 41 61 0
-1 -21 -41 -61 0
2 22 42 62 0
-2 -22 -42 -62 0
3 23 43 63 0
-3 -23 -43 -63 0
4 24 44 64 0
-4 -24 -44 -64 0
1 22 43 64 0
-1 -22 -43 -64 0
